2000 3598.0 3958.0 4162.1 4402.0 4720.0
3000 3029.0 3606.0 3912.2 4042.0 4784.0
4000 2752.0 3011.0 3387.6 3727.0 3893.0
5000 2291.0 2752.0 3025.6 3273.0 3597.0
6000 2291.0 2752.0 2999.1 3225.0 3603.0
7000 1824.0 2327.0 2596.7 2882.0 3013.0
8000 1619.0 1824.0 2411.4 2712.0 2997.0
9000 1619.0 1824.0 2361.8 2712.0 2919.0
10000 1395.0 1585.0 2073.6 2403.0 2451.0
11000 1181.0 1484.0 1946.6 2334.0 2412.0
12000 1181.0 1484.0 1888.0 2157.0 2267.0
13000 1181.0 1267.0 1800.0 2157.0 2302.0
14000 739.0 1267.0 1664.4 1941.0 2196.0
15000 739.0 1068.0 1477.7 1756.0 2048.0
16000 739.0 1068.0 1358.9 1619.0 2048.0
17000 739.0 1068.0 1277.5 1417.0 2048.0
18000 733.0 1068.0 1251.6 1417.0 2048.0
19000 733.0 919.0 1191.4 1417.0 2013.0
20000 707.0 739.0 1077.8 1273.0 1455.0
21000 707.0 739.0 1054.1 1271.0 1455.0
22000 707.0 739.0 1042.5 1301.0 1390.0
23000 707.0 739.0 924.6 1039.0 1343.0
24000 611.0 739.0 907.7 1039.0 1283.0
25000 698.0 717.0 905.7 1039.0 1283.0
26000 698.0 717.0 868.5 994.0 1023.0
27000 564.0 707.0 825.0 974.0 1012.0
28000 564.0 707.0 785.7 897.0 1016.0
29000 564.0 707.0 737.7 808.0 872.0
30000 564.0 707.0 731.4 808.0 834.0
31000 544.0 672.0 720.4 808.0 834.0
32000 544.0 654.0 712.5 808.0 840.0
33000 544.0 654.0 692.7 769.0 807.0
34000 544.0 672.0 700.4 769.0 807.0
35000 544.0 596.0 683.2 769.0 807.0
36000 544.0 579.0 691.9 769.0 807.0
37000 544.0 635.0 697.4 769.0 807.0
38000 512.0 605.0 684.1 769.0 807.0
39000 512.0 564.0 664.6 739.0 792.0
40000 512.0 564.0 655.4 739.0 792.0
41000 512.0 564.0 662.8 739.0 792.0
42000 512.0 590.0 672.0 740.0 807.0
43000 512.0 590.0 659.2 739.0 807.0
44000 512.0 564.0 636.3 706.0 807.0
45000 407.0 557.0 610.0 660.0 792.0
46000 407.0 557.0 595.0 647.0 779.0
47000 512.0 560.0 619.3 647.0 784.0
48000 512.0 560.0 629.3 707.0 807.0
49000 512.0 560.0 615.6 688.0 721.0
50000 512.0 560.0 615.9 688.0 721.0
51000 512.0 560.0 621.0 707.0 739.0
52000 512.0 560.0 637.3 719.0 739.0
53000 512.0 559.0 621.4 719.0 739.0
54000 512.0 559.0 628.5 719.0 739.0
55000 512.0 551.0 626.3 719.0 739.0
56000 454.0 532.0 581.6 613.0 735.0
57000 454.0 559.0 601.3 707.0 735.0
58000 454.0 559.0 598.2 676.0 735.0
59000 454.0 559.0 598.6 707.0 735.0
60000 444.0 559.0 600.3 707.0 735.0
61000 444.0 559.0 600.2 707.0 735.0
62000 444.0 544.0 589.9 619.0 735.0
63000 444.0 544.0 567.4 613.0 647.0
64000 444.0 544.0 567.4 613.0 647.0
65000 444.0 544.0 576.2 613.0 735.0
66000 444.0 544.0 585.5 613.0 735.0
67000 444.0 544.0 590.0 619.0 735.0
68000 444.0 544.0 586.8 619.0 719.0
69000 444.0 559.0 597.1 703.0 719.0
70000 444.0 559.0 597.1 703.0 719.0
71000 429.0 512.0 570.0 613.0 735.0
72000 429.0 512.0 570.0 613.0 735.0
73000 429.0 512.0 573.5 613.0 735.0
74000 429.0 477.0 547.7 590.0 719.0
75000 429.0 456.0 538.9 590.0 739.0
76000 429.0 456.0 539.9 590.0 781.0
77000 429.0 456.0 543.1 590.0 781.0
78000 429.0 456.0 543.1 590.0 781.0
79000 429.0 454.0 532.3 590.0 781.0
80000 429.0 456.0 534.3 590.0 693.0
81000 331.0 454.0 516.2 590.0 693.0
82000 331.0 451.0 502.3 560.0 693.0
83000 331.0 451.0 502.3 560.0 693.0
84000 331.0 451.0 497.2 559.0 781.0
85000 429.0 454.0 515.3 559.0 781.0
86000 421.0 454.0 514.5 559.0 781.0
87000 429.0 451.0 504.2 512.0 781.0
88000 429.0 454.0 502.7 512.0 735.0
89000 429.0 454.0 515.3 559.0 781.0
90000 429.0 454.0 515.3 559.0 781.0
91000 429.0 454.0 499.3 523.0 657.0
92000 416.0 454.0 501.6 559.0 657.0
93000 416.0 454.0 514.0 559.0 781.0
94000 416.0 454.0 508.6 512.0 781.0
95000 429.0 454.0 515.3 559.0 781.0
96000 429.0 454.0 515.3 559.0 781.0
97000 429.0 454.0 515.3 559.0 781.0
98000 429.0 454.0 511.7 523.0 781.0
99000 429.0 454.0 511.1 523.0 775.0
100000 429.0 454.0 511.7 523.0 781.0
101000 429.0 451.0 504.0 523.0 781.0
102000 422.0 435.0 498.5 523.0 781.0
103000 414.0 435.0 493.1 477.0 781.0
104000 414.0 435.0 493.1 477.0 781.0
105000 414.0 435.0 493.1 477.0 781.0
106000 414.0 451.0 500.8 512.0 781.0
107000 414.0 451.0 500.8 512.0 781.0
108000 414.0 451.0 488.0 512.0 653.0
109000 414.0 451.0 488.0 512.0 653.0
110000 414.0 451.0 488.0 512.0 653.0
111000 414.0 451.0 488.0 512.0 653.0
112000 414.0 451.0 488.0 512.0 653.0
113000 414.0 451.0 488.0 512.0 653.0
114000 414.0 451.0 488.0 512.0 653.0
115000 414.0 451.0 488.0 512.0 653.0
116000 414.0 451.0 488.0 512.0 653.0
117000 414.0 451.0 500.8 512.0 781.0
118000 414.0 451.0 500.8 512.0 781.0
119000 414.0 451.0 490.8 477.0 781.0
120000 414.0 451.0 500.8 512.0 781.0
121000 414.0 451.0 500.8 512.0 781.0
122000 414.0 451.0 500.8 512.0 781.0
123000 414.0 451.0 500.8 512.0 781.0
124000 229.0 429.0 463.5 477.0 691.0
125000 229.0 429.0 463.5 477.0 691.0
126000 229.0 429.0 467.9 477.0 735.0
127000 229.0 427.0 462.9 474.0 735.0
128000 229.0 429.0 472.5 477.0 781.0
129000 229.0 429.0 459.0 477.0 646.0
130000 229.0 429.0 472.5 477.0 781.0
131000 229.0 426.0 459.1 474.0 781.0
132000 229.0 426.0 459.1 474.0 781.0
133000 229.0 429.0 472.5 477.0 781.0
134000 229.0 429.0 466.4 477.0 720.0
135000 229.0 429.0 466.4 477.0 720.0
136000 229.0 429.0 472.5 477.0 781.0
137000 229.0 429.0 468.9 477.0 745.0
138000 229.0 429.0 468.9 477.0 745.0
139000 229.0 429.0 467.7 477.0 733.0
140000 229.0 429.0 471.3 477.0 769.0
141000 229.0 429.0 471.3 477.0 769.0
142000 229.0 429.0 471.3 477.0 769.0
143000 229.0 414.0 459.6 477.0 698.0
144000 229.0 429.0 464.2 477.0 698.0
145000 229.0 429.0 464.2 477.0 698.0
146000 229.0 429.0 464.2 477.0 698.0
147000 229.0 429.0 464.2 477.0 698.0
148000 229.0 429.0 469.2 477.0 748.0
149000 229.0 414.0 457.5 477.0 676.0
150000 229.0 429.0 472.5 477.0 781.0
151000 229.0 429.0 472.5 477.0 781.0
152000 229.0 429.0 472.5 477.0 781.0
153000 229.0 429.0 469.7 477.0 781.0
154000 229.0 429.0 458.4 477.0 668.0
155000 229.0 429.0 454.6 477.0 602.0
156000 229.0 429.0 454.6 477.0 602.0
157000 229.0 429.0 454.6 477.0 602.0
158000 229.0 429.0 454.6 477.0 602.0
159000 229.0 414.0 448.3 477.0 602.0
160000 229.0 414.0 448.3 477.0 602.0
161000 229.0 411.0 438.6 477.0 602.0
162000 229.0 411.0 438.6 477.0 602.0
163000 229.0 429.0 454.6 477.0 602.0
164000 229.0 429.0 445.4 477.0 560.0
165000 229.0 414.0 435.6 477.0 560.0
166000 229.0 414.0 435.6 477.0 560.0
167000 229.0 429.0 445.4 477.0 560.0
168000 229.0 429.0 445.4 477.0 560.0
169000 229.0 429.0 445.4 477.0 560.0
170000 229.0 414.0 440.4 477.0 560.0
171000 229.0 429.0 445.4 477.0 560.0
172000 229.0 429.0 445.4 477.0 560.0
173000 229.0 429.0 445.4 477.0 560.0
174000 229.0 429.0 445.4 477.0 560.0
175000 229.0 429.0 445.4 477.0 560.0
176000 229.0 429.0 445.4 477.0 560.0
177000 229.0 429.0 445.4 477.0 560.0
178000 229.0 429.0 445.4 477.0 560.0
179000 229.0 429.0 445.4 477.0 560.0
180000 229.0 429.0 445.4 477.0 560.0
181000 229.0 429.0 445.4 477.0 560.0
182000 229.0 414.0 441.4 477.0 560.0
183000 229.0 429.0 445.4 477.0 560.0
184000 229.0 429.0 445.4 477.0 560.0
185000 229.0 429.0 445.4 477.0 560.0
186000 229.0 429.0 445.4 477.0 560.0
187000 229.0 429.0 445.4 477.0 560.0
188000 229.0 429.0 445.4 477.0 560.0
189000 229.0 419.0 431.3 474.0 510.0
190000 229.0 419.0 431.3 474.0 510.0
191000 229.0 419.0 431.3 474.0 510.0
192000 229.0 419.0 431.3 474.0 510.0
193000 229.0 419.0 422.7 456.0 477.0
194000 229.0 419.0 422.7 456.0 477.0
195000 229.0 419.0 422.7 456.0 477.0
196000 229.0 419.0 422.7 456.0 477.0
197000 229.0 419.0 422.7 456.0 477.0
198000 229.0 419.0 422.7 456.0 477.0
199000 229.0 419.0 422.7 456.0 477.0
200000 229.0 419.0 422.7 456.0 477.0
201000 229.0 419.0 422.7 456.0 477.0
202000 229.0 419.0 422.7 456.0 477.0
203000 229.0 424.0 436.8 474.0 560.0
204000 229.0 424.0 436.8 474.0 560.0
205000 229.0 424.0 436.8 474.0 560.0
206000 229.0 424.0 436.8 474.0 560.0
207000 229.0 414.0 425.7 456.0 560.0
208000 229.0 414.0 425.7 456.0 560.0
209000 229.0 414.0 425.7 456.0 560.0
210000 229.0 414.0 422.2 456.0 525.0
211000 229.0 414.0 425.7 456.0 560.0
212000 229.0 414.0 424.3 456.0 546.0
213000 229.0 414.0 424.3 456.0 546.0
214000 229.0 411.0 424.0 456.0 546.0
215000 229.0 411.0 425.4 456.0 560.0
216000 229.0 411.0 425.4 456.0 560.0
217000 229.0 414.0 425.7 456.0 560.0
218000 229.0 414.0 425.7 456.0 560.0
219000 229.0 414.0 425.7 456.0 560.0
220000 229.0 414.0 425.7 456.0 560.0
221000 229.0 414.0 425.7 456.0 560.0
222000 229.0 414.0 425.7 456.0 560.0
223000 229.0 414.0 425.7 456.0 560.0
224000 229.0 414.0 425.7 456.0 560.0
225000 229.0 414.0 425.7 456.0 560.0
226000 229.0 414.0 425.7 456.0 560.0
227000 229.0 414.0 425.7 456.0 560.0
228000 229.0 414.0 425.7 456.0 560.0
229000 229.0 414.0 420.4 456.0 507.0
230000 229.0 414.0 420.4 456.0 507.0
231000 229.0 414.0 420.4 456.0 507.0
232000 229.0 414.0 420.4 456.0 507.0
233000 229.0 363.0 412.8 456.0 507.0
234000 229.0 363.0 412.8 456.0 507.0
235000 229.0 363.0 412.8 456.0 507.0
236000 229.0 363.0 412.8 456.0 507.0
237000 229.0 363.0 412.8 456.0 507.0
238000 229.0 363.0 409.4 454.0 507.0
239000 229.0 363.0 412.8 456.0 507.0
240000 229.0 363.0 412.8 456.0 507.0
241000 229.0 363.0 418.1 456.0 560.0
242000 229.0 363.0 418.1 456.0 560.0
243000 229.0 363.0 418.1 456.0 560.0
244000 229.0 363.0 412.0 456.0 499.0
245000 229.0 363.0 412.0 456.0 499.0
246000 229.0 363.0 418.1 456.0 560.0
247000 229.0 363.0 409.8 454.0 560.0
248000 229.0 363.0 409.8 454.0 560.0
249000 229.0 363.0 402.6 451.0 560.0
250000 229.0 363.0 418.1 456.0 560.0
251000 229.0 363.0 418.1 456.0 560.0
252000 229.0 363.0 418.1 456.0 560.0
253000 229.0 363.0 418.1 456.0 560.0
254000 229.0 363.0 418.1 456.0 560.0
255000 229.0 363.0 418.1 456.0 560.0
256000 229.0 363.0 418.1 456.0 560.0
257000 229.0 363.0 418.1 456.0 560.0
258000 229.0 363.0 418.1 456.0 560.0
259000 229.0 363.0 412.3 456.0 502.0
260000 229.0 363.0 412.3 456.0 502.0
261000 229.0 363.0 407.0 456.0 502.0
262000 229.0 363.0 412.3 456.0 502.0
263000 229.0 363.0 412.3 456.0 502.0
264000 229.0 363.0 412.3 456.0 502.0
265000 229.0 363.0 412.3 456.0 502.0
266000 229.0 363.0 418.1 456.0 560.0
267000 229.0 363.0 417.8 456.0 557.0
268000 229.0 363.0 418.1 456.0 560.0
269000 229.0 363.0 418.1 456.0 560.0
270000 229.0 363.0 418.1 456.0 560.0
271000 229.0 363.0 418.1 456.0 560.0
272000 229.0 363.0 418.1 456.0 560.0
273000 229.0 363.0 418.1 456.0 560.0
274000 229.0 363.0 418.1 456.0 560.0
275000 229.0 363.0 418.1 456.0 560.0
276000 229.0 363.0 418.1 456.0 560.0
277000 229.0 363.0 418.1 456.0 560.0
278000 229.0 363.0 418.1 456.0 560.0
279000 229.0 363.0 417.4 454.0 560.0
280000 229.0 363.0 418.1 456.0 560.0
281000 229.0 363.0 418.1 456.0 560.0
282000 229.0 363.0 418.1 456.0 560.0
283000 229.0 363.0 416.7 456.0 560.0
284000 229.0 363.0 416.7 456.0 560.0
285000 229.0 363.0 416.7 456.0 560.0
286000 229.0 363.0 418.1 456.0 560.0
287000 229.0 363.0 418.1 456.0 560.0
288000 229.0 363.0 418.1 456.0 560.0
289000 229.0 363.0 414.4 456.0 560.0
290000 229.0 363.0 418.1 456.0 560.0
291000 229.0 363.0 418.1 456.0 560.0
292000 229.0 363.0 410.1 456.0 560.0
293000 229.0 363.0 418.1 456.0 560.0
294000 229.0 363.0 418.1 456.0 560.0
295000 229.0 363.0 418.1 456.0 560.0
296000 229.0 363.0 414.7 456.0 526.0
297000 229.0 363.0 414.7 456.0 526.0
298000 229.0 363.0 418.1 456.0 560.0
299000 229.0 363.0 418.1 456.0 560.0
300000 229.0 363.0 418.1 456.0 560.0
301000 229.0 363.0 418.1 456.0 560.0
302000 229.0 363.0 418.1 456.0 560.0
303000 229.0 363.0 418.1 456.0 560.0
304000 229.0 363.0 418.1 456.0 560.0
305000 229.0 363.0 418.1 456.0 560.0
306000 229.0 363.0 418.1 456.0 560.0
307000 229.0 363.0 418.1 456.0 560.0
308000 229.0 363.0 418.1 456.0 560.0
309000 229.0 363.0 418.1 456.0 560.0
310000 229.0 363.0 418.1 456.0 560.0
311000 229.0 363.0 418.1 456.0 560.0
312000 229.0 363.0 418.1 456.0 560.0
313000 229.0 363.0 418.1 456.0 560.0
314000 229.0 363.0 401.2 454.0 477.0
315000 229.0 363.0 401.2 454.0 477.0
316000 229.0 363.0 401.2 454.0 477.0
317000 229.0 363.0 401.2 454.0 477.0
318000 229.0 363.0 401.2 454.0 477.0
319000 229.0 363.0 401.2 454.0 477.0
320000 229.0 363.0 401.2 454.0 477.0
321000 229.0 363.0 401.2 454.0 477.0
322000 229.0 363.0 401.2 454.0 477.0
323000 229.0 363.0 401.2 454.0 477.0
324000 229.0 363.0 401.2 454.0 477.0
325000 229.0 363.0 401.2 454.0 477.0
326000 229.0 363.0 401.2 454.0 477.0
327000 229.0 363.0 401.2 454.0 477.0
328000 229.0 363.0 401.2 454.0 477.0
329000 229.0 346.0 385.6 451.0 477.0
330000 229.0 363.0 400.3 451.0 477.0
331000 229.0 363.0 400.3 451.0 477.0
332000 229.0 363.0 401.2 454.0 477.0
333000 229.0 363.0 401.2 454.0 477.0
334000 229.0 363.0 401.2 454.0 477.0
335000 229.0 363.0 401.2 454.0 477.0
336000 229.0 363.0 401.2 454.0 477.0
337000 229.0 363.0 401.2 454.0 477.0
338000 229.0 363.0 401.2 454.0 477.0
339000 229.0 363.0 398.2 451.0 477.0
340000 229.0 363.0 401.2 454.0 477.0
341000 229.0 363.0 401.2 454.0 477.0
342000 229.0 363.0 397.7 454.0 477.0
343000 229.0 363.0 401.2 454.0 477.0
344000 229.0 363.0 401.2 454.0 477.0
345000 229.0 363.0 401.2 454.0 477.0
346000 229.0 363.0 401.2 454.0 477.0
347000 229.0 363.0 401.2 454.0 477.0
348000 229.0 363.0 401.2 454.0 477.0
349000 229.0 363.0 401.2 454.0 477.0
350000 229.0 363.0 401.2 454.0 477.0
351000 229.0 363.0 401.2 454.0 477.0
352000 229.0 363.0 401.2 454.0 477.0
353000 229.0 363.0 401.2 454.0 477.0
354000 229.0 363.0 401.2 454.0 477.0
355000 229.0 363.0 401.2 454.0 477.0
356000 229.0 363.0 401.2 454.0 477.0
357000 229.0 363.0 401.2 454.0 477.0
358000 229.0 363.0 401.2 454.0 477.0
359000 229.0 363.0 401.2 454.0 477.0
360000 229.0 363.0 401.2 454.0 477.0
361000 229.0 363.0 401.2 454.0 477.0
362000 229.0 363.0 400.4 454.0 469.0
363000 229.0 363.0 400.4 454.0 469.0
364000 229.0 363.0 401.2 454.0 477.0
365000 229.0 363.0 401.2 454.0 477.0
366000 229.0 363.0 401.2 454.0 477.0
367000 229.0 363.0 401.2 454.0 477.0
368000 229.0 363.0 401.2 454.0 477.0
369000 229.0 363.0 401.2 454.0 477.0
370000 229.0 363.0 401.2 454.0 477.0
371000 229.0 363.0 401.2 454.0 477.0
372000 229.0 363.0 401.2 454.0 477.0
373000 229.0 363.0 401.2 454.0 477.0
374000 229.0 363.0 401.2 454.0 477.0
375000 229.0 363.0 401.2 454.0 477.0
376000 229.0 363.0 401.2 454.0 477.0
377000 229.0 363.0 401.2 454.0 477.0
378000 229.0 363.0 401.2 454.0 477.0
379000 229.0 363.0 401.2 454.0 477.0
380000 229.0 363.0 401.2 454.0 477.0
381000 229.0 363.0 401.2 454.0 477.0
382000 229.0 363.0 401.2 454.0 477.0
383000 229.0 363.0 401.2 454.0 477.0
384000 229.0 363.0 401.2 454.0 477.0
385000 229.0 363.0 401.2 454.0 477.0
386000 229.0 363.0 401.2 454.0 477.0
387000 229.0 363.0 401.2 454.0 477.0
388000 229.0 363.0 401.2 454.0 477.0
389000 229.0 363.0 395.4 451.0 456.0
390000 229.0 363.0 395.4 451.0 456.0
391000 229.0 363.0 395.4 451.0 456.0
392000 229.0 363.0 395.4 451.0 456.0
393000 229.0 363.0 395.4 451.0 456.0
394000 229.0 363.0 401.2 454.0 477.0
395000 229.0 363.0 401.2 454.0 477.0
396000 229.0 353.0 391.2 454.0 477.0
397000 229.0 353.0 391.2 454.0 477.0
398000 229.0 353.0 391.2 454.0 477.0
399000 229.0 353.0 387.3 438.0 456.0
400000 229.0 353.0 390.1 454.0 466.0
401000 229.0 353.0 387.7 442.0 456.0
402000 229.0 353.0 387.7 442.0 456.0
403000 229.0 353.0 387.7 442.0 456.0
404000 229.0 353.0 387.7 442.0 456.0
405000 229.0 353.0 387.7 442.0 456.0
406000 229.0 353.0 378.9 424.0 454.0
407000 229.0 351.0 377.1 442.0 456.0
408000 229.0 351.0 377.1 442.0 456.0
409000 229.0 351.0 380.6 454.0 477.0
410000 229.0 351.0 380.6 454.0 477.0
411000 229.0 351.0 380.6 454.0 477.0
412000 229.0 351.0 380.6 454.0 477.0
413000 229.0 353.0 387.4 454.0 477.0
414000 229.0 353.0 391.1 454.0 477.0
415000 229.0 353.0 391.2 454.0 477.0
416000 229.0 353.0 391.2 454.0 477.0
417000 229.0 353.0 391.2 454.0 477.0
418000 229.0 353.0 391.2 454.0 477.0
419000 229.0 353.0 391.2 454.0 477.0
420000 229.0 353.0 391.2 454.0 477.0
421000 229.0 353.0 391.2 454.0 477.0
422000 229.0 353.0 391.2 454.0 477.0
423000 229.0 353.0 391.2 454.0 477.0
424000 229.0 353.0 391.2 454.0 477.0
425000 229.0 353.0 383.5 424.0 456.0
426000 229.0 353.0 383.5 424.0 456.0
427000 229.0 353.0 383.5 424.0 456.0
428000 229.0 353.0 381.3 424.0 456.0
429000 229.0 353.0 381.3 424.0 456.0
430000 229.0 353.0 383.5 424.0 456.0
431000 229.0 353.0 383.5 424.0 456.0
432000 229.0 353.0 383.5 424.0 456.0
433000 229.0 353.0 383.5 424.0 456.0
434000 229.0 353.0 383.5 424.0 456.0
435000 229.0 353.0 383.5 424.0 456.0
436000 229.0 353.0 380.6 424.0 456.0
437000 229.0 353.0 383.5 424.0 456.0
438000 229.0 353.0 383.5 424.0 456.0
439000 229.0 353.0 383.5 424.0 456.0
440000 229.0 353.0 377.6 414.0 456.0
441000 229.0 353.0 377.6 414.0 456.0
442000 229.0 353.0 377.6 414.0 456.0
443000 229.0 353.0 377.6 414.0 456.0
444000 229.0 353.0 377.6 414.0 456.0
445000 229.0 353.0 377.6 414.0 456.0
446000 229.0 353.0 377.6 414.0 456.0
447000 229.0 353.0 377.6 414.0 456.0
448000 229.0 353.0 383.5 424.0 456.0
449000 229.0 353.0 383.5 424.0 456.0
450000 229.0 353.0 383.5 424.0 456.0
451000 229.0 353.0 383.5 424.0 456.0
452000 229.0 353.0 383.5 424.0 456.0
453000 229.0 353.0 383.5 424.0 456.0
454000 229.0 353.0 383.5 424.0 456.0
455000 229.0 353.0 383.5 424.0 456.0
456000 229.0 353.0 383.5 424.0 456.0
457000 229.0 353.0 383.5 424.0 456.0
458000 229.0 353.0 383.5 424.0 456.0
459000 229.0 353.0 383.5 424.0 456.0
460000 229.0 351.0 381.3 424.0 456.0
461000 229.0 353.0 382.4 424.0 456.0
462000 229.0 353.0 382.4 424.0 456.0
463000 229.0 353.0 382.4 424.0 456.0
464000 229.0 353.0 382.4 424.0 456.0
465000 229.0 353.0 382.4 424.0 456.0
466000 229.0 353.0 382.4 424.0 456.0
467000 229.0 353.0 382.4 424.0 456.0
468000 229.0 353.0 382.4 424.0 456.0
469000 229.0 353.0 383.5 424.0 456.0
470000 229.0 353.0 383.5 424.0 456.0
471000 229.0 353.0 383.5 424.0 456.0
472000 229.0 353.0 383.5 424.0 456.0
473000 229.0 353.0 383.5 424.0 456.0
474000 229.0 353.0 383.5 424.0 456.0
475000 229.0 353.0 383.5 424.0 456.0
476000 229.0 353.0 383.5 424.0 456.0
477000 229.0 353.0 381.3 424.0 456.0
478000 229.0 353.0 381.3 424.0 456.0
479000 229.0 353.0 381.3 424.0 456.0
480000 229.0 353.0 381.3 424.0 456.0
481000 229.0 353.0 381.3 424.0 456.0
482000 229.0 353.0 381.3 424.0 456.0
483000 229.0 353.0 383.5 424.0 456.0
484000 229.0 353.0 383.5 424.0 456.0
485000 229.0 353.0 383.5 424.0 456.0
486000 229.0 353.0 383.5 424.0 456.0
487000 229.0 353.0 383.5 424.0 456.0
488000 229.0 353.0 383.5 424.0 456.0
489000 229.0 353.0 383.5 424.0 456.0
490000 229.0 353.0 383.5 424.0 456.0
491000 229.0 353.0 383.5 424.0 456.0
492000 229.0 353.0 383.5 424.0 456.0
493000 229.0 353.0 383.5 424.0 456.0
494000 229.0 353.0 383.5 424.0 456.0
495000 229.0 353.0 383.5 424.0 456.0
496000 229.0 353.0 383.5 424.0 456.0
497000 229.0 353.0 381.9 424.0 456.0
498000 229.0 353.0 382.4 424.0 456.0
499000 229.0 353.0 383.5 424.0 456.0
500000 229.0 353.0 383.5 424.0 456.0
501000 229.0 353.0 383.5 424.0 456.0
502000 229.0 353.0 383.5 424.0 456.0
503000 229.0 353.0 383.5 424.0 456.0
504000 229.0 353.0 379.3 424.0 456.0
505000 229.0 353.0 379.3 424.0 456.0
506000 229.0 353.0 383.5 424.0 456.0
507000 229.0 353.0 383.5 424.0 456.0
508000 229.0 353.0 383.5 424.0 456.0
509000 229.0 353.0 383.5 424.0 456.0
510000 229.0 353.0 383.5 424.0 456.0
511000 229.0 353.0 383.5 424.0 456.0
512000 229.0 353.0 383.5 424.0 456.0
513000 229.0 353.0 383.5 424.0 456.0
514000 229.0 353.0 383.5 424.0 456.0
515000 229.0 353.0 383.5 424.0 456.0
516000 229.0 353.0 383.5 424.0 456.0
517000 229.0 353.0 383.5 424.0 456.0
518000 229.0 353.0 383.5 424.0 456.0
519000 229.0 353.0 383.5 424.0 456.0
520000 229.0 353.0 383.5 424.0 456.0
521000 229.0 353.0 383.5 424.0 456.0
522000 229.0 353.0 383.5 424.0 456.0
523000 229.0 353.0 383.5 424.0 456.0
524000 229.0 353.0 383.5 424.0 456.0
525000 229.0 353.0 383.5 424.0 456.0
526000 229.0 353.0 383.5 424.0 456.0
527000 229.0 353.0 383.5 424.0 456.0
528000 229.0 353.0 380.1 414.0 456.0
529000 229.0 353.0 380.1 414.0 456.0
530000 229.0 353.0 383.5 424.0 456.0
531000 229.0 353.0 383.5 424.0 456.0
532000 229.0 353.0 383.0 419.0 456.0
533000 229.0 353.0 383.5 424.0 456.0
534000 229.0 353.0 383.5 424.0 456.0
535000 229.0 353.0 383.5 424.0 456.0
536000 229.0 353.0 383.5 424.0 456.0
537000 229.0 353.0 378.1 414.0 454.0
538000 229.0 353.0 378.1 414.0 454.0
539000 229.0 353.0 378.1 414.0 454.0
540000 229.0 353.0 378.1 414.0 454.0
541000 229.0 353.0 383.5 424.0 456.0
542000 229.0 353.0 383.5 424.0 456.0
543000 229.0 353.0 383.5 424.0 456.0
544000 229.0 353.0 383.5 424.0 456.0
545000 229.0 353.0 383.5 424.0 456.0
546000 229.0 353.0 383.5 424.0 456.0
547000 229.0 353.0 383.5 424.0 456.0
548000 229.0 353.0 383.5 424.0 456.0
549000 229.0 353.0 383.5 424.0 456.0
550000 229.0 353.0 383.5 424.0 456.0
551000 229.0 353.0 383.5 424.0 456.0
552000 229.0 353.0 383.5 424.0 456.0
553000 229.0 353.0 383.5 424.0 456.0
554000 229.0 353.0 383.5 424.0 456.0
555000 229.0 353.0 383.5 424.0 456.0
556000 229.0 353.0 383.5 424.0 456.0
557000 229.0 353.0 383.4 424.0 456.0
558000 229.0 353.0 383.5 424.0 456.0
559000 229.0 353.0 383.5 424.0 456.0
560000 229.0 353.0 383.5 424.0 456.0
561000 229.0 353.0 383.5 424.0 456.0
562000 229.0 353.0 383.5 424.0 456.0
563000 229.0 353.0 383.5 424.0 456.0
564000 229.0 353.0 383.5 424.0 456.0
565000 229.0 353.0 383.5 424.0 456.0
566000 229.0 353.0 383.5 424.0 456.0
567000 229.0 353.0 383.5 424.0 456.0
568000 229.0 353.0 383.5 424.0 456.0
569000 229.0 353.0 383.5 424.0 456.0
570000 229.0 351.0 379.1 424.0 456.0
571000 229.0 351.0 379.1 424.0 456.0
572000 229.0 351.0 379.1 424.0 456.0
573000 229.0 351.0 373.5 424.0 456.0
574000 229.0 351.0 373.5 424.0 456.0
575000 229.0 351.0 373.5 424.0 456.0
576000 229.0 351.0 373.5 424.0 456.0
577000 229.0 351.0 373.5 424.0 456.0
578000 229.0 351.0 373.5 424.0 456.0
579000 229.0 300.0 362.9 424.0 456.0
580000 229.0 300.0 362.9 424.0 456.0
581000 229.0 300.0 362.9 424.0 456.0
582000 229.0 300.0 362.5 420.0 456.0
583000 229.0 300.0 362.9 424.0 456.0
584000 229.0 300.0 361.6 414.0 456.0
585000 229.0 300.0 361.2 414.0 456.0
586000 229.0 300.0 361.6 414.0 456.0
587000 229.0 300.0 362.9 424.0 456.0
588000 229.0 300.0 362.9 424.0 456.0
589000 229.0 300.0 362.9 424.0 456.0
590000 229.0 300.0 362.9 424.0 456.0
591000 229.0 300.0 362.9 424.0 456.0
592000 229.0 300.0 362.9 424.0 456.0
593000 229.0 300.0 362.9 424.0 456.0
594000 229.0 300.0 362.9 424.0 456.0
595000 229.0 300.0 362.9 424.0 456.0
596000 229.0 300.0 362.9 424.0 456.0
597000 229.0 300.0 362.9 424.0 456.0
598000 229.0 300.0 362.9 424.0 456.0
599000 229.0 300.0 362.9 424.0 456.0
600000 229.0 300.0 362.9 424.0 456.0
601000 229.0 300.0 362.9 424.0 456.0
602000 229.0 300.0 362.9 424.0 456.0
603000 229.0 300.0 362.9 424.0 456.0
604000 229.0 300.0 362.9 424.0 456.0
605000 229.0 300.0 362.9 424.0 456.0
606000 229.0 300.0 362.9 424.0 456.0
607000 229.0 300.0 362.9 424.0 456.0
608000 229.0 300.0 362.9 424.0 456.0
609000 229.0 300.0 362.9 424.0 456.0
610000 229.0 300.0 362.9 424.0 456.0
611000 229.0 300.0 362.9 424.0 456.0
612000 229.0 300.0 362.9 424.0 456.0
613000 229.0 300.0 362.9 424.0 456.0
614000 229.0 300.0 362.9 424.0 456.0
615000 229.0 300.0 362.9 424.0 456.0
616000 229.0 300.0 362.9 424.0 456.0
617000 229.0 300.0 362.9 424.0 456.0
618000 229.0 300.0 362.9 424.0 456.0
619000 229.0 300.0 362.9 424.0 456.0
620000 229.0 300.0 362.9 424.0 456.0
621000 229.0 300.0 362.9 424.0 456.0
622000 229.0 300.0 361.6 424.0 456.0
623000 229.0 300.0 361.6 424.0 456.0
624000 229.0 300.0 362.9 424.0 456.0
625000 229.0 300.0 362.9 424.0 456.0
626000 229.0 300.0 362.9 424.0 456.0
627000 229.0 300.0 362.9 424.0 456.0
628000 229.0 300.0 362.9 424.0 456.0
629000 229.0 300.0 362.9 424.0 456.0
630000 229.0 300.0 362.9 424.0 456.0
631000 229.0 300.0 362.9 424.0 456.0
632000 229.0 300.0 362.9 424.0 456.0
633000 229.0 300.0 362.9 424.0 456.0
634000 229.0 300.0 362.9 424.0 456.0
635000 229.0 300.0 356.4 414.0 454.0
636000 229.0 300.0 356.4 414.0 454.0
637000 229.0 300.0 356.4 414.0 454.0
638000 229.0 300.0 356.4 414.0 454.0
639000 229.0 300.0 362.9 424.0 456.0
640000 229.0 300.0 362.9 424.0 456.0
641000 229.0 300.0 362.9 424.0 456.0
642000 229.0 300.0 362.9 424.0 456.0
643000 229.0 300.0 362.9 424.0 456.0
644000 229.0 300.0 362.9 424.0 456.0
645000 229.0 300.0 358.3 414.0 456.0
646000 229.0 300.0 362.9 424.0 456.0
647000 229.0 300.0 362.9 424.0 456.0
648000 229.0 300.0 362.9 424.0 456.0
649000 229.0 296.0 341.0 414.0 454.0
650000 229.0 296.0 341.0 414.0 454.0
651000 229.0 296.0 346.9 414.0 454.0
652000 229.0 296.0 346.9 414.0 454.0
653000 229.0 296.0 346.9 414.0 454.0
654000 229.0 300.0 362.9 424.0 456.0
655000 229.0 300.0 362.9 424.0 456.0
656000 229.0 300.0 362.9 424.0 456.0
657000 229.0 300.0 362.9 424.0 456.0
658000 229.0 300.0 362.9 424.0 456.0
659000 229.0 300.0 362.9 424.0 456.0
660000 229.0 300.0 362.9 424.0 456.0
661000 229.0 300.0 362.9 424.0 456.0
662000 229.0 300.0 362.9 424.0 456.0
663000 229.0 300.0 362.9 424.0 456.0
664000 229.0 300.0 362.9 424.0 456.0
665000 229.0 300.0 362.9 424.0 456.0
666000 229.0 300.0 362.9 424.0 456.0
667000 229.0 300.0 362.9 424.0 456.0
668000 229.0 300.0 362.9 424.0 456.0
669000 229.0 300.0 362.9 424.0 456.0
670000 229.0 300.0 362.9 424.0 456.0
671000 229.0 300.0 362.9 424.0 456.0
672000 229.0 300.0 362.9 424.0 456.0
673000 229.0 300.0 362.9 424.0 456.0
674000 229.0 300.0 362.9 424.0 456.0
675000 229.0 300.0 362.9 424.0 456.0
676000 229.0 300.0 362.9 424.0 456.0
677000 229.0 300.0 362.9 424.0 456.0
678000 229.0 300.0 362.9 424.0 456.0
679000 229.0 300.0 362.9 424.0 456.0
680000 229.0 300.0 362.9 424.0 456.0
681000 229.0 300.0 362.9 424.0 456.0
682000 229.0 300.0 362.9 424.0 456.0
683000 229.0 300.0 362.9 424.0 456.0
684000 229.0 300.0 362.9 424.0 456.0
685000 229.0 300.0 362.9 424.0 456.0
686000 229.0 300.0 362.9 424.0 456.0
687000 229.0 300.0 362.9 424.0 456.0
688000 229.0 300.0 362.9 424.0 456.0
689000 229.0 300.0 361.5 424.0 456.0
690000 229.0 300.0 362.9 424.0 456.0
691000 229.0 300.0 362.9 424.0 456.0
692000 229.0 300.0 362.9 424.0 456.0
693000 229.0 300.0 362.9 424.0 456.0
694000 229.0 300.0 362.9 424.0 456.0
695000 229.0 300.0 362.9 424.0 456.0
696000 229.0 300.0 362.9 424.0 456.0
697000 229.0 300.0 362.9 424.0 456.0
698000 229.0 300.0 358.6 414.0 456.0
699000 229.0 300.0 358.6 414.0 456.0
700000 229.0 300.0 358.6 414.0 456.0
701000 229.0 300.0 362.9 424.0 456.0
702000 229.0 300.0 361.2 414.0 456.0
703000 229.0 300.0 361.2 414.0 456.0
704000 229.0 300.0 361.2 414.0 456.0
705000 229.0 300.0 361.2 414.0 456.0
706000 229.0 300.0 361.2 414.0 456.0
707000 229.0 300.0 362.9 424.0 456.0
708000 229.0 300.0 362.9 424.0 456.0
709000 229.0 300.0 362.9 424.0 456.0
710000 229.0 300.0 362.9 424.0 456.0
711000 229.0 300.0 362.9 424.0 456.0
712000 229.0 300.0 362.9 424.0 456.0
713000 229.0 300.0 362.9 424.0 456.0
714000 229.0 300.0 362.9 424.0 456.0
715000 229.0 300.0 362.9 424.0 456.0
716000 229.0 300.0 362.9 424.0 456.0
717000 229.0 300.0 358.7 424.0 456.0
718000 229.0 300.0 358.7 424.0 456.0
719000 229.0 300.0 362.9 424.0 456.0
720000 229.0 300.0 362.9 424.0 456.0
721000 229.0 300.0 362.9 424.0 456.0
722000 229.0 300.0 362.9 424.0 456.0
723000 229.0 300.0 362.9 424.0 456.0
724000 229.0 300.0 362.9 424.0 456.0
725000 229.0 300.0 362.9 424.0 456.0
726000 229.0 300.0 362.9 424.0 456.0
727000 229.0 300.0 362.9 424.0 456.0
728000 229.0 300.0 362.9 424.0 456.0
729000 229.0 300.0 362.9 424.0 456.0
730000 229.0 300.0 362.9 424.0 456.0
731000 229.0 300.0 362.9 424.0 456.0
732000 229.0 300.0 354.9 414.0 456.0
733000 229.0 300.0 362.9 424.0 456.0
734000 229.0 300.0 362.9 424.0 456.0
735000 229.0 300.0 362.9 424.0 456.0
736000 229.0 300.0 362.9 424.0 456.0
737000 229.0 300.0 362.9 424.0 456.0
738000 229.0 300.0 362.9 424.0 456.0
739000 229.0 300.0 362.9 424.0 456.0
740000 229.0 300.0 362.9 424.0 456.0
741000 229.0 300.0 362.9 424.0 456.0
742000 229.0 300.0 362.9 424.0 456.0
743000 229.0 300.0 362.9 424.0 456.0
744000 229.0 300.0 362.9 424.0 456.0
745000 229.0 300.0 362.9 424.0 456.0
746000 229.0 300.0 362.9 424.0 456.0
747000 229.0 300.0 362.9 424.0 456.0
748000 229.0 300.0 362.9 424.0 456.0
749000 229.0 300.0 362.9 424.0 456.0
750000 229.0 300.0 362.9 424.0 456.0
751000 229.0 300.0 361.2 414.0 456.0
752000 229.0 300.0 362.9 424.0 456.0
753000 229.0 300.0 362.9 424.0 456.0
754000 229.0 300.0 362.9 424.0 456.0
755000 229.0 300.0 362.9 424.0 456.0
756000 229.0 300.0 362.9 424.0 456.0
757000 229.0 300.0 362.9 424.0 456.0
758000 229.0 300.0 362.9 424.0 456.0
759000 229.0 300.0 362.9 424.0 456.0
760000 229.0 300.0 362.9 424.0 456.0
761000 229.0 300.0 362.9 424.0 456.0
762000 229.0 300.0 362.9 424.0 456.0
763000 229.0 300.0 362.9 424.0 456.0
764000 229.0 300.0 362.9 424.0 456.0
765000 229.0 300.0 362.9 424.0 456.0
766000 229.0 300.0 362.9 424.0 456.0
767000 229.0 300.0 362.9 424.0 456.0
768000 229.0 300.0 362.9 424.0 456.0
769000 229.0 300.0 362.9 424.0 456.0
770000 229.0 300.0 362.9 424.0 456.0
771000 229.0 300.0 362.9 424.0 456.0
772000 229.0 300.0 362.9 424.0 456.0
773000 229.0 300.0 362.9 424.0 456.0
774000 229.0 300.0 362.9 424.0 456.0
775000 229.0 300.0 362.9 424.0 456.0
776000 229.0 300.0 362.9 424.0 456.0
777000 229.0 300.0 362.9 424.0 456.0
778000 229.0 300.0 362.9 424.0 456.0
779000 229.0 300.0 362.9 424.0 456.0
780000 229.0 300.0 362.9 424.0 456.0
781000 229.0 300.0 362.9 424.0 456.0
782000 229.0 300.0 362.9 424.0 456.0
783000 229.0 300.0 362.9 424.0 456.0
784000 229.0 300.0 362.9 424.0 456.0
785000 229.0 300.0 362.9 424.0 456.0
786000 229.0 300.0 362.9 424.0 456.0
787000 229.0 300.0 362.9 424.0 456.0
788000 229.0 300.0 362.9 424.0 456.0
789000 229.0 300.0 362.9 424.0 456.0
790000 229.0 300.0 362.9 424.0 456.0
791000 229.0 300.0 362.9 424.0 456.0
792000 229.0 300.0 362.9 424.0 456.0
793000 229.0 300.0 362.9 424.0 456.0
794000 229.0 300.0 362.9 424.0 456.0
795000 229.0 300.0 362.9 424.0 456.0
796000 229.0 300.0 362.9 424.0 456.0
797000 229.0 300.0 362.9 424.0 456.0
798000 229.0 300.0 362.6 424.0 454.0
799000 229.0 300.0 362.6 424.0 454.0
800000 229.0 300.0 362.6 424.0 454.0
801000 229.0 300.0 362.9 424.0 456.0
802000 229.0 300.0 362.9 424.0 456.0
803000 229.0 300.0 362.9 424.0 456.0
804000 229.0 300.0 362.9 424.0 456.0
805000 229.0 300.0 362.9 424.0 456.0
806000 229.0 300.0 362.9 424.0 456.0
807000 229.0 300.0 362.9 424.0 456.0
808000 229.0 300.0 362.9 424.0 456.0
809000 229.0 300.0 361.7 414.0 456.0
810000 229.0 300.0 361.7 414.0 456.0
811000 229.0 298.0 361.5 414.0 456.0
812000 229.0 298.0 361.5 414.0 456.0
813000 229.0 298.0 362.0 417.0 456.0
814000 229.0 298.0 362.7 424.0 456.0
815000 229.0 298.0 362.7 424.0 456.0
816000 229.0 298.0 362.7 424.0 456.0
817000 229.0 298.0 362.7 424.0 456.0
818000 229.0 298.0 362.7 424.0 456.0
819000 229.0 298.0 359.9 419.0 456.0
820000 229.0 300.0 360.6 424.0 456.0
821000 229.0 300.0 360.6 424.0 456.0
822000 229.0 300.0 360.6 424.0 456.0
823000 229.0 300.0 351.4 414.0 456.0
824000 229.0 300.0 351.4 414.0 456.0
825000 229.0 300.0 351.4 414.0 456.0
826000 229.0 300.0 351.4 414.0 456.0
827000 229.0 300.0 351.4 414.0 456.0
828000 229.0 300.0 350.6 414.0 454.0
829000 229.0 300.0 353.7 414.0 456.0
830000 229.0 300.0 353.7 414.0 456.0
831000 229.0 300.0 353.7 414.0 456.0
832000 229.0 300.0 353.7 414.0 456.0
833000 229.0 300.0 353.7 414.0 456.0
834000 229.0 300.0 353.7 414.0 456.0
835000 229.0 300.0 353.7 414.0 456.0
836000 229.0 300.0 353.7 414.0 456.0
837000 229.0 300.0 353.7 414.0 456.0
838000 229.0 300.0 353.7 414.0 456.0
839000 229.0 300.0 353.7 414.0 456.0
840000 229.0 300.0 353.7 414.0 456.0
841000 229.0 300.0 353.7 414.0 456.0
842000 229.0 300.0 353.7 414.0 456.0
843000 229.0 300.0 353.7 414.0 456.0
844000 229.0 300.0 353.7 414.0 456.0
845000 229.0 300.0 353.7 414.0 456.0
846000 229.0 300.0 353.7 414.0 456.0
847000 229.0 300.0 347.3 392.0 454.0
848000 229.0 300.0 347.3 392.0 454.0
849000 229.0 300.0 353.7 414.0 456.0
850000 229.0 300.0 353.7 414.0 456.0
851000 229.0 300.0 353.7 414.0 456.0
852000 229.0 300.0 353.7 414.0 456.0
853000 229.0 300.0 353.7 414.0 456.0
854000 229.0 300.0 353.7 414.0 456.0
855000 229.0 300.0 353.7 414.0 456.0
856000 229.0 300.0 353.7 414.0 456.0
857000 229.0 300.0 353.7 414.0 456.0
858000 229.0 300.0 353.7 414.0 456.0
859000 229.0 300.0 352.2 414.0 456.0
860000 229.0 300.0 352.4 401.0 456.0
861000 229.0 300.0 352.4 401.0 456.0
862000 229.0 300.0 353.7 414.0 456.0
863000 229.0 300.0 353.7 414.0 456.0
864000 229.0 300.0 353.7 414.0 456.0
865000 229.0 300.0 353.7 414.0 456.0
866000 229.0 300.0 353.7 414.0 456.0
867000 229.0 300.0 353.7 414.0 456.0
868000 229.0 300.0 353.7 414.0 456.0
869000 229.0 300.0 353.7 414.0 456.0
870000 229.0 300.0 353.7 414.0 456.0
871000 229.0 300.0 353.7 414.0 456.0
872000 229.0 300.0 353.7 414.0 456.0
873000 229.0 300.0 353.7 414.0 456.0
874000 229.0 300.0 353.7 414.0 456.0
875000 229.0 300.0 353.7 414.0 456.0
876000 229.0 300.0 353.7 414.0 456.0
877000 229.0 300.0 353.7 414.0 456.0
878000 229.0 300.0 353.7 414.0 456.0
879000 229.0 300.0 353.7 414.0 456.0
880000 229.0 300.0 353.7 414.0 456.0
881000 229.0 300.0 353.7 414.0 456.0
882000 229.0 300.0 353.7 414.0 456.0
883000 229.0 300.0 343.2 391.0 456.0
884000 229.0 300.0 343.2 391.0 456.0
885000 229.0 300.0 343.2 391.0 456.0
886000 229.0 300.0 343.2 391.0 456.0
887000 229.0 300.0 343.2 391.0 456.0
888000 229.0 300.0 343.2 391.0 456.0
889000 229.0 300.0 343.2 391.0 456.0
890000 229.0 300.0 334.1 365.0 414.0
891000 229.0 300.0 334.1 365.0 414.0
892000 229.0 300.0 343.2 391.0 456.0
893000 229.0 300.0 343.2 391.0 456.0
894000 229.0 300.0 343.2 391.0 456.0
895000 229.0 300.0 343.2 391.0 456.0
896000 229.0 300.0 343.2 391.0 456.0
897000 229.0 300.0 343.2 391.0 456.0
898000 229.0 300.0 343.2 391.0 456.0
899000 229.0 300.0 343.2 391.0 456.0
900000 229.0 300.0 343.2 391.0 456.0
901000 229.0 300.0 343.2 391.0 456.0
902000 229.0 300.0 343.2 391.0 456.0
903000 229.0 300.0 343.2 391.0 456.0
904000 229.0 300.0 343.2 391.0 456.0
905000 229.0 300.0 343.2 391.0 456.0
906000 229.0 300.0 343.2 391.0 456.0
907000 229.0 300.0 343.2 391.0 456.0
908000 229.0 300.0 343.2 391.0 456.0
909000 229.0 300.0 343.2 391.0 456.0
910000 229.0 300.0 343.2 391.0 456.0
911000 229.0 300.0 343.2 391.0 456.0
912000 229.0 300.0 343.2 391.0 456.0
913000 229.0 300.0 343.2 391.0 456.0
914000 229.0 300.0 343.2 391.0 456.0
915000 229.0 300.0 343.2 391.0 456.0
916000 229.0 300.0 343.2 391.0 456.0
917000 229.0 300.0 343.2 391.0 456.0
918000 229.0 300.0 343.2 391.0 456.0
919000 229.0 300.0 343.2 391.0 456.0
920000 229.0 300.0 343.2 391.0 456.0
921000 229.0 300.0 343.2 391.0 456.0
922000 229.0 300.0 343.2 391.0 456.0
923000 229.0 300.0 343.2 391.0 456.0
924000 229.0 300.0 343.2 391.0 456.0
925000 229.0 300.0 343.2 391.0 456.0
926000 229.0 300.0 343.2 391.0 456.0
927000 229.0 300.0 343.2 391.0 456.0
928000 229.0 300.0 343.2 391.0 456.0
929000 229.0 300.0 343.2 391.0 456.0
930000 229.0 300.0 343.2 391.0 456.0
931000 229.0 300.0 343.2 391.0 456.0
932000 229.0 300.0 343.2 391.0 456.0
933000 229.0 300.0 343.2 391.0 456.0
934000 229.0 300.0 343.2 391.0 456.0
935000 229.0 300.0 343.2 391.0 456.0
936000 229.0 300.0 343.2 391.0 456.0
937000 229.0 300.0 343.2 391.0 456.0
938000 229.0 300.0 343.2 391.0 456.0
939000 229.0 300.0 343.2 391.0 456.0
940000 229.0 300.0 343.2 391.0 456.0
941000 229.0 300.0 343.2 391.0 456.0
942000 229.0 300.0 343.2 391.0 456.0
943000 229.0 300.0 343.2 391.0 456.0
944000 229.0 300.0 343.2 391.0 456.0
945000 229.0 300.0 343.2 391.0 456.0
946000 229.0 300.0 343.2 391.0 456.0
947000 229.0 300.0 343.2 391.0 456.0
948000 229.0 300.0 343.2 391.0 456.0
949000 229.0 300.0 343.2 391.0 456.0
950000 229.0 300.0 343.2 391.0 456.0
951000 229.0 300.0 343.2 391.0 456.0
952000 229.0 300.0 343.2 391.0 456.0
953000 229.0 300.0 343.2 391.0 456.0
954000 229.0 300.0 343.2 391.0 456.0
955000 229.0 298.0 337.7 391.0 456.0
956000 229.0 300.0 343.2 391.0 456.0
957000 229.0 300.0 343.2 391.0 456.0
958000 229.0 300.0 343.2 391.0 456.0
959000 229.0 257.0 332.0 391.0 456.0
960000 229.0 257.0 332.0 391.0 456.0
961000 229.0 257.0 332.0 391.0 456.0
962000 229.0 257.0 332.0 391.0 456.0
963000 229.0 257.0 332.0 391.0 456.0
964000 229.0 257.0 332.0 391.0 456.0
965000 229.0 257.0 332.0 391.0 456.0
966000 229.0 257.0 329.3 364.0 456.0
967000 229.0 257.0 329.3 364.0 456.0
968000 229.0 257.0 332.0 391.0 456.0
969000 229.0 257.0 332.0 391.0 456.0
970000 229.0 257.0 332.0 391.0 456.0
971000 229.0 257.0 332.0 391.0 456.0
972000 229.0 257.0 332.0 391.0 456.0
973000 229.0 257.0 332.0 391.0 456.0
974000 229.0 257.0 332.0 391.0 456.0
975000 229.0 257.0 332.0 391.0 456.0
976000 229.0 257.0 332.0 391.0 456.0
977000 229.0 257.0 332.0 391.0 456.0
978000 229.0 257.0 332.0 391.0 456.0
979000 229.0 257.0 332.0 391.0 456.0
980000 229.0 257.0 332.0 391.0 456.0
981000 229.0 257.0 332.0 391.0 456.0
982000 229.0 257.0 332.0 391.0 456.0
983000 229.0 257.0 332.0 391.0 456.0
984000 229.0 257.0 332.0 391.0 456.0
985000 229.0 257.0 332.0 391.0 456.0
986000 229.0 257.0 332.0 391.0 456.0
987000 229.0 257.0 332.0 391.0 456.0
988000 229.0 257.0 332.0 391.0 456.0
989000 229.0 257.0 332.0 391.0 456.0
990000 229.0 257.0 332.0 391.0 456.0
991000 229.0 257.0 330.9 391.0 456.0
992000 229.0 257.0 330.9 391.0 456.0
993000 229.0 257.0 332.0 391.0 456.0
994000 229.0 257.0 332.0 391.0 456.0
995000 229.0 257.0 332.0 391.0 456.0
996000 229.0 257.0 332.0 391.0 456.0
997000 229.0 257.0 332.0 391.0 456.0
998000 229.0 257.0 332.0 391.0 456.0
999000 229.0 257.0 332.0 391.0 456.0
1000000 229.0 257.0 332.0 391.0 456.0
1001000 229.0 257.0 332.0 391.0 456.0
